Route #1: 26 17 40 12 72 39 9 32 44 3 51 6
Route #2: 68 30 45 52 27 15 57 13 54 19 8 46 34
Route #3: 29 48 5 37 20 70 60 71 69 36 47 21 74 2
Route #4: 73 62 28 61 22 64 42 41 56 23 43 1 63
Route #5: 33 16 49 24 18 50 25 55 31 10 58
Route #6: 38 65 11 66 59 14 53 35 7
Route #7: 67 4 75
Cost 714